Test: battleship-15-15-unsat.cnf
Options: -no-inverting-opt -sym-usage-var-bump
WARNING: for repeatability, setting FPU to use double precision
============================[ Problem Statistics ]=============================
|                                                                             |
|  Number of symmetries:           10                                         |
|  Number of invertingSyms:         0                                         |
|  Number of variables:           225                                         |
|  Number of clauses:            1800                                         |
|  Parse time:                   0.00 s                                       |
|                                                                             |
============================[ Search Statistics ]==============================
| Conflicts |          ORIGINAL         |          LEARNT          | Progress |
|           |    Vars  Clauses Literals |    Limit  Clauses Lit/Cl |          |
===============================================================================
|       100 |     225     1800     6525 |      660      142     76 |  0.002 % |
|       250 |     225     1800     6525 |      726      292     66 |  0.002 % |
|       475 |     225     1800     6525 |      798      518     61 |  0.002 % |
|       812 |     225     1800     6525 |      878      431     49 |  0.002 % |
|      1318 |     225     1800     6525 |      966      474     49 |  0.002 % |
|      2077 |     225     1800     6525 |     1062      749     41 |  0.002 % |
|      3216 |     225     1800     6525 |     1169      758     57 |  0.002 % |
|      4924 |     225     1800     6525 |     1286     1204     58 |  0.002 % |
|      7486 |     225     1800     6525 |     1414     1053     55 |  0.002 % |
|     11330 |     225     1800     6525 |     1556     1247     57 |  0.002 % |
|     17096 |     225     1800     6525 |     1711     1321     52 |  0.002 % |
|     25745 |     225     1800     6525 |     1883      985     42 |  0.002 % |
|     38719 |     225     1800     6525 |     2071     1368     52 |  0.002 % |
|     58180 |     225     1800     6525 |     2278     1485     49 |  0.002 % |
|     87372 |     225     1800     6525 |     2506     2249     58 |  0.002 % |
|    131161 |     225     1800     6525 |     2756     2090     52 |  0.002 % |
|    196845 |     225     1800     6525 |     3032     2621     60 |  0.002 % |
|    295371 |     225     1800     6525 |     3335     3081     55 |  0.002 % |
|    443160 |     225     1800     6525 |     3669     2538     63 |  0.002 % |
|    664843 |     225     1800     6525 |     4036     2614     62 |  0.002 % |
|    997368 |     225     1800     6525 |     4440     3154     59 |  0.002 % |
|   1496156 |     225     1800     6525 |     4884     4395     54 |  0.002 % |
|   2244338 |     225     1800     6525 |     5372     4170     59 |  0.002 % |
|   3366612 |     225     1800     6525 |     5909     5015     59 |  0.002 % |
|   5050023 |     225     1800     6525 |     6500     5018     65 |  0.002 % |
|   7575139 |     225     1800     6525 |     7150     4895     62 |  0.002 % |
|  11362814 |     225     1800     6525 |     7865     5347     63 |  0.002 % |
|  17044326 |     225     1800     6525 |     8652     5922     67 |  0.002 % |
===============================================================================
restarts              : 29450
conflicts             : 19613533       (26346 /sec)
symconflicts          : 230            (0 /sec)
decisions             : 25683327       (0.00 % random) (34499 /sec)
propagations          : 574510714      (771704 /sec)
sympropagations       : 12288          (17 /sec)
conflict literals     : 1188521419     (9.02 % deleted)
literals     : 1188521419     (9.02 % deleted)

HEURISTIC USAGES
random                : 0           
activity w/ lookahead : 0           
activity no lookahead : 0           
original sp           : 25683327    
sym count             : 0           

Memory used           : 20.00 MB
CPU time              : 744.471 s

UNSATISFIABLE
